c 1 a1
c 2 a2
c 3 a3
c 4 a4
c 5 a5
c 6 __spec__0
c 7 __spec__1
c 8 __spec__2
c MAIN 9 __spec__3
p cnf 9 13
9  0
4 -6  0
5 -6  0
-4 -5 6  0
3 -7  0
6 -7  0
-3 -6 7  0
2 -8  0
7 -8  0
-2 -7 8  0
-9 1 8  0
-1 9  0
-8 9  0
